class1
1 9 00 9 35
2 9 45 10 20
3 10 40 11 35
4 11 30 12 05
5 12 15 12 50
class2
1 9 00 9 40
2 9 50 10 30
3 10 50 11 30
4 11 45 12 25
5 12 35 13 15
6 13 25 14 05
class3
1 9 00 9 40
2 9 50 10 30
3 10 50 11 30
4 11 45 12 25
5 12 35 13 15
6 13 25 14 05
class4
1 9 00 9 40
2 9 50 10 30
3 10 50 11 30
4 11 45 12 25
5 12 35 13 15
6 13 25 14 05
class5
1 9 00 9 45
2 9 50 10 35
3 10 50 11 35
4 11 45 12 30
5 12 40 13 25
6 13 30 14 15
7 14 20 15 05
class6
1 9 00 9 45
2 9 50 10 35
3 10 50 11 35
4 11 45 12 30
5 12 40 13 25
6 13 30 14 15
7 14 20 15 05
class7
1 9 00 9 45
2 9 50 10 35
3 10 50 11 35
4 11 45 12 30
5 12 40 13 25
6 13 30 14 15
7 14 20 15 05
class8
1 9 00 9 45
2 9 50 10 35
3 10 50 11 35
4 11 45 12 30
5 12 40 13 25
6 13 30 14 15
7 14 20 15 05
class9
1 9 00 9 45
2 9 50 10 35
3 10 50 11 35
4 11 45 12 30
5 12 40 13 25
6 13 30 14 15
7 14 20 15 05